language ESSENCE' 1.0

letting n_classes be 30
letting n_options be 5
letting n_cars be 200
letting quantity_Function1D be
        [31, 14, 1, 4, 1, 1, 2, 2, 5, 1, 20, 3, 1, 1, 5, 3, 3, 1, 5, 1, 11, 6, 14, 1, 17, 1, 7, 23, 5, 10; int(1..30)]
letting usage_RelationAsSet_Explicit_1 be
        [1, 2, 2, 3, 3, 3, 4, 4, 4, 5, 5, 5, 5, 6, 6, 6, 7, 7, 8, 8, 8, 8, 9, 10, 10, 10, 11, 11, 12, 12, 13, 13, 13,
         13, 14, 14, 14, 14, 15, 15, 15, 16, 16, 16, 17, 17, 17, 18, 18, 18, 18, 18, 19, 19, 20, 20, 21, 22, 22, 22, 23,
         28; int(1..62)]
letting usage_RelationAsSet_Explicit_2 be
        [2, 2, 3, 2, 3, 4, 1, 3, 4, 1, 2, 3, 5, 1, 4, 5, 1, 3, 1, 2, 3, 4, 5, 3, 4, 5, 1, 2, 3, 5, 2, 3, 4, 5, 1, 2, 4,
         5, 1, 2, 5, 1, 2, 3, 2, 4, 5, 1, 2, 3, 4, 5, 1, 5, 1, 3, 3, 1, 2, 4, 4, 1;
             int(1..62)]
letting blksize_Function1D be [2, 3, 3, 5, 5; int(1..5)]
letting maxcars_Function1D be [1, 2, 1, 2, 1; int(1..5)]
letting fin1 be 30
letting fin2 be 31
letting fin3 be 5
letting fin4 be 2
letting fin5 be 5
letting fin6 be 5
letting fin7 be 62
